minizinc/sudoku_problems2/sudoku_p35.dzn
%
% sudoku_p35.dzn
% See http://www.hakank.org/minizinc/sudoku_gcc.mzn
% 
% This problem is problem 35 from
% Gecode's sudoku.cpp
% http://www.gecode.org/gecode-doc-latest/sudoku_8cpp-source.html
% 
x = array2d(1..n, 1..n, [   
% http://janko.at/Raetsel/Sudoku/302.a.htm
% 35
  _, 13, 16,  1,  _, 12,  _, 11, 14,  _,  _,  3,  _,  4,  _, 10,
  _,  _,  7, 11,  _,  6,  2,  _,  _,  4,  1,  _,  _,  _,  5,  9,
  _,  _,  _,  _,  _,  _,  _, 13,  _,  _,  _,  _,  _, 16,  _,  _,
  _,  _,  4,  9,  _,  7,  _,  3,  _, 11,  6,  _,  _, 15, 13,  _,
  _,  9,  _,  _, 16,  _,  _,  _, 12,  _,  _,  _,  _,  _,  _,  4,
 16,  _,  _,  4,  6,  _,  _,  _,  _,  9, 15,  _,  3,  _, 11,  _,
  _, 12,  5,  _,  1,  _,  _,  _, 11, 14,  _,  8,  6,  _,  _, 16,
  _, 11,  _,  _,  _,  _,  _, 14,  2, 16,  _,  _,  _, 13,  _,  _,
  _,  _,  3,  _,  _,  _,  5,  9,  6,  _,  _,  _,  _,  _,  1,  _,
 15,  _,  _, 12,  2,  _,  7,  6,  _,  _,  _, 11,  _, 14,  3,  _,
  _,  1,  _,  8,  _,  4, 13,  _,  _,  _,  _,  7, 15,  _,  _,  5,
 14,  _,  _,  _,  _,  _,  _, 15,  _,  _,  _, 13,  _,  _,  9,  _,
  _, 10, 11,  _,  _, 15, 16,  _,  1,  _,  3,  _, 12,  8,  _,  _,
  _,  _,  2,  _,  _,  _,  _,  _, 15,  _,  _,  _,  _,  _,  _,  _,
  8, 15,  _,  _,  _, 11, 12,  _,  _,  6,  2,  _,  9,  7,  _,  _,
  1,  _,  6,  _, 10,  _,  _,  5,  9,  _, 12,  _, 16, 11,  2,  _
]);

n = 16;


